c 
c U(n,d) graph
c graph gen seed     : 5253
c number of vertices : 80
c max number of edges: 3160
c Euclidean distance : 0.400000
c data structure     : sparse
c
c           Graph Stats
c number of vertices  : 80
c nonisolated vertices: 80
c number of edges     : 1071
c edge density        : 0.338924
c max degree          : 41
c avg degree          : 26.77
c min degree          : 12
p col 80 1071
e 1 78
e 1 74
e 1 71
e 1 67
e 1 64
e 1 62
e 1 60
e 1 53
e 1 47
e 1 43
e 1 34
e 1 33
e 1 30
e 1 28
e 1 26
e 1 21
e 1 13
e 1 7
e 1 5
e 2 80
e 2 79
e 2 75
e 2 73
e 2 72
e 2 68
e 2 66
e 2 63
e 2 59
e 2 57
e 2 54
e 2 52
e 2 50
e 2 49
e 2 48
e 2 44
e 2 43
e 2 42
e 2 41
e 2 40
e 2 39
e 2 38
e 2 37
e 2 35
e 2 32
e 2 31
e 2 28
e 2 27
e 2 25
e 2 24
e 2 22
e 2 19
e 2 18
e 2 17
e 2 16
e 2 12
e 2 6
e 2 4
e 2 3
e 3 80
e 3 79
e 3 73
e 3 72
e 3 68
e 3 66
e 3 63
e 3 59
e 3 54
e 3 50
e 3 49
e 3 48
e 3 44
e 3 42
e 3 41
e 3 40
e 3 39
e 3 38
e 3 37
e 3 35
e 3 32
e 3 31
e 3 27
e 3 25
e 3 24
e 3 22
e 3 19
e 3 18
e 3 17
e 3 16
e 3 12
e 3 6
e 3 4
e 4 80
e 4 79
e 4 75
e 4 73
e 4 72
e 4 68
e 4 66
e 4 63
e 4 59
e 4 57
e 4 54
e 4 52
e 4 50
e 4 49
e 4 48
e 4 44
e 4 43
e 4 42
e 4 41
e 4 40
e 4 39
e 4 38
e 4 37
e 4 35
e 4 32
e 4 31
e 4 29
e 4 27
e 4 25
e 4 24
e 4 22
e 4 19
e 4 18
e 4 17
e 4 16
e 4 12
e 4 10
e 4 6
e 5 78
e 5 74
e 5 67
e 5 65
e 5 64
e 5 62
e 5 60
e 5 56
e 5 45
e 5 34
e 5 33
e 5 30
e 5 26
e 5 23
e 5 21
e 5 20
e 5 15
e 5 13
e 5 8
e 6 80
e 6 79
e 6 75
e 6 74
e 6 73
e 6 72
e 6 71
e 6 68
e 6 63
e 6 61
e 6 60
e 6 52
e 6 50
e 6 49
e 6 47
e 6 44
e 6 43
e 6 41
e 6 40
e 6 39
e 6 38
e 6 37
e 6 32
e 6 31
e 6 28
e 6 27
e 6 25
e 6 24
e 6 23
e 6 22
e 6 19
e 6 17
e 6 14
e 6 7
e 7 78
e 7 75
e 7 74
e 7 73
e 7 71
e 7 64
e 7 61
e 7 60
e 7 53
e 7 49
e 7 47
e 7 44
e 7 43
e 7 40
e 7 30
e 7 28
e 7 21
e 7 14
e 8 77
e 8 70
e 8 69
e 8 67
e 8 65
e 8 62
e 8 60
e 8 58
e 8 57
e 8 56
e 8 55
e 8 51
e 8 46
e 8 45
e 8 33
e 8 23
e 8 20
e 8 15
e 8 13
e 8 11
e 8 9
e 9 77
e 9 76
e 9 70
e 9 69
e 9 59
e 9 58
e 9 57
e 9 55
e 9 54
e 9 51
e 9 46
e 9 37
e 9 36
e 9 29
e 9 27
e 9 25
e 9 22
e 9 19
e 9 16
e 9 11
e 9 10
e 10 76
e 10 66
e 10 59
e 10 57
e 10 55
e 10 54
e 10 38
e 10 37
e 10 36
e 10 29
e 10 27
e 10 25
e 10 22
e 10 19
e 10 16
e 10 11
e 11 77
e 11 76
e 11 70
e 11 69
e 11 59
e 11 58
e 11 57
e 11 55
e 11 54
e 11 46
e 11 38
e 11 37
e 11 36
e 11 29
e 11 27
e 11 25
e 11 22
e 11 19
e 11 16
e 12 80
e 12 79
e 12 72
e 12 68
e 12 66
e 12 63
e 12 59
e 12 50
e 12 48
e 12 44
e 12 42
e 12 41
e 12 39
e 12 38
e 12 37
e 12 35
e 12 32
e 12 31
e 12 27
e 12 24
e 12 22
e 12 19
e 12 18
e 12 17
e 13 78
e 13 77
e 13 69
e 13 67
e 13 65
e 13 64
e 13 62
e 13 60
e 13 58
e 13 56
e 13 51
e 13 46
e 13 45
e 13 34
e 13 33
e 13 30
e 13 26
e 13 23
e 13 21
e 13 20
e 13 15
e 14 75
e 14 74
e 14 73
e 14 72
e 14 71
e 14 63
e 14 61
e 14 50
e 14 49
e 14 47
e 14 44
e 14 43
e 14 41
e 14 40
e 14 39
e 14 32
e 14 28
e 14 21
e 15 77
e 15 70
e 15 69
e 15 67
e 15 65
e 15 62
e 15 58
e 15 56
e 15 55
e 15 51
e 15 46
e 15 45
e 15 33
e 15 26
e 15 23
e 15 20
e 16 79
e 16 76
e 16 66
e 16 59
e 16 57
e 16 54
e 16 38
e 16 37
e 16 36
e 16 29
e 16 27
e 16 25
e 16 24
e 16 22
e 16 19
e 16 18
e 17 80
e 17 79
e 17 73
e 17 72
e 17 68
e 17 66
e 17 63
e 17 50
e 17 49
e 17 48
e 17 44
e 17 42
e 17 41
e 17 39
e 17 38
e 17 35
e 17 32
e 17 31
e 17 24
e 17 18
e 18 80
e 18 79
e 18 72
e 18 68
e 18 66
e 18 63
e 18 59
e 18 50
e 18 48
e 18 44
e 18 42
e 18 41
e 18 39
e 18 38
e 18 37
e 18 35
e 18 32
e 18 31
e 18 27
e 18 25
e 18 24
e 18 22
e 18 19
e 19 80
e 19 79
e 19 72
e 19 68
e 19 66
e 19 59
e 19 57
e 19 54
e 19 52
e 19 48
e 19 44
e 19 42
e 19 41
e 19 40
e 19 39
e 19 38
e 19 37
e 19 32
e 19 31
e 19 29
e 19 27
e 19 25
e 19 24
e 19 22
e 20 77
e 20 70
e 20 69
e 20 67
e 20 65
e 20 62
e 20 58
e 20 56
e 20 55
e 20 51
e 20 46
e 20 45
e 20 34
e 20 33
e 20 26
e 20 23
e 21 78
e 21 75
e 21 74
e 21 71
e 21 64
e 21 61
e 21 60
e 21 53
e 21 47
e 21 43
e 21 40
e 21 34
e 21 33
e 21 30
e 21 28
e 21 23
e 22 80
e 22 79
e 22 76
e 22 68
e 22 66
e 22 59
e 22 57
e 22 54
e 22 52
e 22 48
e 22 46
e 22 41
e 22 40
e 22 39
e 22 38
e 22 37
e 22 32
e 22 29
e 22 27
e 22 25
e 22 24
e 23 78
e 23 77
e 23 74
e 23 70
e 23 69
e 23 67
e 23 65
e 23 64
e 23 62
e 23 60
e 23 58
e 23 57
e 23 56
e 23 54
e 23 52
e 23 51
e 23 46
e 23 45
e 23 43
e 23 40
e 23 37
e 23 33
e 23 28
e 23 27
e 23 25
e 23 24
e 24 80
e 24 79
e 24 75
e 24 73
e 24 72
e 24 68
e 24 66
e 24 63
e 24 60
e 24 59
e 24 57
e 24 54
e 24 52
e 24 50
e 24 49
e 24 48
e 24 44
e 24 43
e 24 42
e 24 41
e 24 40
e 24 39
e 24 38
e 24 37
e 24 32
e 24 31
e 24 29
e 24 28
e 24 27
e 24 25
e 25 80
e 25 79
e 25 75
e 25 72
e 25 69
e 25 68
e 25 66
e 25 60
e 25 59
e 25 57
e 25 54
e 25 52
e 25 49
e 25 48
e 25 46
e 25 45
e 25 44
e 25 43
e 25 41
e 25 40
e 25 39
e 25 38
e 25 37
e 25 32
e 25 29
e 25 28
e 25 27
e 26 78
e 26 67
e 26 65
e 26 64
e 26 62
e 26 56
e 26 45
e 26 34
e 26 33
e 26 30
e 27 80
e 27 79
e 27 76
e 27 69
e 27 68
e 27 66
e 27 59
e 27 57
e 27 54
e 27 52
e 27 48
e 27 46
e 27 41
e 27 40
e 27 39
e 27 38
e 27 37
e 27 36
e 27 32
e 27 29
e 28 80
e 28 79
e 28 78
e 28 75
e 28 74
e 28 73
e 28 72
e 28 71
e 28 64
e 28 63
e 28 61
e 28 60
e 28 53
e 28 52
e 28 49
e 28 47
e 28 44
e 28 43
e 28 41
e 28 40
e 28 39
e 28 32
e 28 30
e 29 79
e 29 76
e 29 69
e 29 66
e 29 59
e 29 57
e 29 55
e 29 54
e 29 52
e 29 46
e 29 38
e 29 37
e 29 36
e 30 78
e 30 74
e 30 71
e 30 67
e 30 64
e 30 62
e 30 60
e 30 53
e 30 47
e 30 34
e 30 33
e 31 80
e 31 79
e 31 73
e 31 72
e 31 68
e 31 66
e 31 63
e 31 50
e 31 49
e 31 48
e 31 44
e 31 42
e 31 41
e 31 39
e 31 38
e 31 35
e 31 32
e 32 80
e 32 79
e 32 75
e 32 73
e 32 72
e 32 68
e 32 66
e 32 63
e 32 60
e 32 57
e 32 54
e 32 52
e 32 50
e 32 49
e 32 48
e 32 44
e 32 43
e 32 42
e 32 41
e 32 40
e 32 39
e 32 38
e 32 37
e 32 35
e 33 78
e 33 77
e 33 67
e 33 65
e 33 64
e 33 62
e 33 60
e 33 56
e 33 51
e 33 45
e 33 34
e 34 78
e 34 74
e 34 67
e 34 65
e 34 64
e 34 62
e 34 60
e 34 56
e 34 45
e 35 80
e 35 79
e 35 73
e 35 72
e 35 68
e 35 66
e 35 63
e 35 50
e 35 48
e 35 44
e 35 42
e 35 41
e 35 39
e 35 38
e 36 76
e 36 70
e 36 59
e 36 58
e 36 57
e 36 55
e 36 54
e 37 80
e 37 79
e 37 75
e 37 72
e 37 68
e 37 66
e 37 59
e 37 57
e 37 54
e 37 52
e 37 49
e 37 48
e 37 46
e 37 44
e 37 43
e 37 41
e 37 40
e 37 39
e 37 38
e 38 80
e 38 79
e 38 75
e 38 73
e 38 72
e 38 68
e 38 66
e 38 63
e 38 59
e 38 57
e 38 54
e 38 52
e 38 50
e 38 49
e 38 48
e 38 44
e 38 43
e 38 42
e 38 41
e 38 40
e 38 39
e 39 80
e 39 79
e 39 75
e 39 73
e 39 72
e 39 68
e 39 66
e 39 63
e 39 61
e 39 54
e 39 52
e 39 50
e 39 49
e 39 48
e 39 44
e 39 43
e 39 42
e 39 41
e 39 40
e 40 80
e 40 79
e 40 75
e 40 74
e 40 73
e 40 72
e 40 71
e 40 68
e 40 63
e 40 60
e 40 57
e 40 54
e 40 52
e 40 50
e 40 49
e 40 47
e 40 46
e 40 45
e 40 44
e 40 43
e 40 41
e 41 80
e 41 79
e 41 75
e 41 73
e 41 72
e 41 68
e 41 66
e 41 63
e 41 61
e 41 52
e 41 50
e 41 49
e 41 48
e 41 44
e 41 43
e 41 42
e 42 80
e 42 79
e 42 73
e 42 72
e 42 68
e 42 66
e 42 63
e 42 50
e 42 49
e 42 48
e 42 44
e 43 80
e 43 79
e 43 78
e 43 75
e 43 74
e 43 73
e 43 72
e 43 71
e 43 64
e 43 63
e 43 61
e 43 60
e 43 53
e 43 52
e 43 50
e 43 49
e 43 47
e 43 44
e 44 80
e 44 79
e 44 75
e 44 73
e 44 72
e 44 68
e 44 63
e 44 61
e 44 52
e 44 50
e 44 49
e 44 48
e 44 47
e 45 78
e 45 77
e 45 70
e 45 69
e 45 67
e 45 65
e 45 64
e 45 62
e 45 60
e 45 58
e 45 57
e 45 56
e 45 55
e 45 52
e 45 51
e 45 46
e 46 77
e 46 70
e 46 69
e 46 67
e 46 62
e 46 60
e 46 58
e 46 57
e 46 56
e 46 55
e 46 54
e 46 52
e 46 51
e 47 75
e 47 74
e 47 73
e 47 72
e 47 71
e 47 61
e 47 60
e 47 53
e 47 49
e 48 80
e 48 79
e 48 73
e 48 72
e 48 68
e 48 66
e 48 63
e 48 59
e 48 50
e 49 80
e 49 79
e 49 75
e 49 74
e 49 73
e 49 72
e 49 71
e 49 68
e 49 63
e 49 61
e 49 60
e 49 52
e 49 50
e 50 80
e 50 79
e 50 75
e 50 73
e 50 72
e 50 68
e 50 63
e 50 61
e 51 77
e 51 70
e 51 69
e 51 67
e 51 65
e 51 62
e 51 58
e 51 57
e 51 56
e 51 55
e 52 80
e 52 79
e 52 75
e 52 74
e 52 72
e 52 69
e 52 68
e 52 60
e 52 59
e 52 57
e 52 54
e 53 78
e 53 74
e 53 71
e 53 64
e 53 60
e 54 80
e 54 79
e 54 76
e 54 69
e 54 66
e 54 59
e 54 57
e 54 55
e 55 77
e 55 76
e 55 70
e 55 69
e 55 58
e 55 57
e 55 56
e 56 78
e 56 77
e 56 70
e 56 69
e 56 67
e 56 65
e 56 64
e 56 62
e 56 60
e 56 58
e 57 80
e 57 79
e 57 77
e 57 76
e 57 70
e 57 69
e 57 59
e 57 58
e 58 77
e 58 70
e 58 69
e 58 62
e 59 80
e 59 79
e 59 76
e 59 68
e 59 66
e 60 78
e 60 75
e 60 74
e 60 71
e 60 67
e 60 64
e 60 62
e 61 75
e 61 74
e 61 73
e 61 72
e 61 71
e 61 63
e 62 78
e 62 77
e 62 69
e 62 67
e 62 65
e 62 64
e 63 80
e 63 79
e 63 75
e 63 73
e 63 72
e 63 68
e 64 78
e 64 74
e 64 71
e 64 67
e 64 65
e 65 78
e 65 77
e 65 67
e 66 80
e 66 79
e 66 68
e 67 78
e 67 77
e 67 69
e 68 80
e 68 79
e 68 75
e 68 73
e 68 72
e 69 77
e 69 70
e 70 77
e 70 76
e 71 78
e 71 75
e 71 74
e 72 80
e 72 79
e 72 75
e 72 73
e 73 80
e 73 79
e 73 75
e 74 78
e 74 75
e 75 80
e 75 79
e 79 80
